networks/zoo_56_454/zoo_56_454-lower.txt
Number of groups: 27
Flow 15: {1 7 0} {7 3 0} {3 21 0} {21 23 0} {23 51 0} 
Flow 19: {1 2 0} {2 4 0} {4 26 0} {26 27 0} {27 55 0} 
Flow 33: {11 18 0} {18 46 0} 
Flow 67: {4 2 0} {2 1 0} {1 29 0} 
Flow 70: {2 7 0} {7 35 0} 
Flow 89: {5 15 0} {15 25 0} {25 9 0} 
Flow 106: {6 15 0} {15 21 0} {21 16 0} {16 20 0} {20 19 0} {19 47 0} 
Flow 115: {7 2 0} {2 30 0} 
Flow 147: {8 17 0} {17 23 0} {23 21 0} {21 49 0} 
Flow 150: {17 24 0} {24 25 0} {25 53 0} 
Flow 173: {9 25 0} {25 15 0} {15 5 0} {5 33 0} 
Flow 194: {3 4 0} {4 32 0} 
Flow 243: {13 14 0} {14 10 0} {10 9 0} {9 24 0} {24 17 0} {17 8 0} {8 22 0} {22 50 0} 
Flow 271: {21 3 0} {3 7 0} {7 1 0} 
Flow 296: {18 11 0} {11 12 0} {12 13 0} {13 41 0} 
Flow 298: {16 44 0} 
Flow 312: {10 14 0} {14 13 0} {13 12 0} {12 11 0} {11 39 0} 
Flow 323: {28 27 0} {27 26 0} {26 54 0} 
Flow 328: {20 16 0} {16 3 0} {3 31 0} 
Flow 354: {12 40 0} 
Flow 368: {19 28 0} {28 56 0} 
Flow 375: {22 16 0} {16 21 0} {21 15 0} {15 43 0} 
Flow 392: {24 9 0} {9 10 0} {10 38 0} 
Flow 420: {25 23 0} {23 17 0} {17 45 0} 
Flow 427: {25 24 0} {24 52 0} 
Flow 440: {26 4 0} {4 3 0} {3 16 0} {16 22 0} {22 8 0} {8 36 0} 
Flow 447: {27 28 0} {28 19 0} {19 20 0} {20 48 0} 
Time taken running everything: 1 seconds
