networks/zoo_56_454/zoo_56_454-lower.sol
<?xml version = "1.0" encoding="UTF-8" standalone="yes"?>
<CPLEXSolution version="1.2">
 <header
   problemName="networks/zoo_56_454/zoo_56_454-lower.lp"
   solutionName="incumbent"
   solutionIndex="-1"
   objectiveValue="25"
   solutionTypeValue="3"
   solutionTypeString="primal"
   solutionStatusValue="101"
   solutionStatusString="integer optimal solution"
   solutionMethodString="mip"
   primalFeasible="1"
   dualFeasible="1"
   MIPNodes="0"
   MIPIterations="0"
   writeLevel="3"/>
 <quality
   epInt="1.0000000000000001e-05"
   epRHS="9.9999999999999995e-07"
   maxIntInfeas="0"
   maxPrimalInfeas="0"
   maxX="1"
   maxSlack="1"/>
 <variables>
  <variable name="Y(1,2)" index="1" value="1"/>
  <variable name="Y(2,3)" index="55" value="1"/>
  <variable name="Y(3,4)" index="109" value="1"/>
  <variable name="Y(4,7)" index="165" value="1"/>
  <variable name="Y(5,8)" index="219" value="1"/>
  <variable name="Y(6,10)" index="274" value="1"/>
  <variable name="Y(7,13)" index="330" value="1"/>
  <variable name="Y(8,15)" index="385" value="1"/>
  <variable name="Y(9,16)" index="439" value="1"/>
  <variable name="Y(10,17)" index="493" value="1"/>
  <variable name="Y(11,19)" index="548" value="1"/>
  <variable name="Y(12,20)" index="602" value="1"/>
  <variable name="Y(13,21)" index="656" value="1"/>
  <variable name="Y(14,22)" index="710" value="1"/>
  <variable name="Y(15,23)" index="764" value="1"/>
  <variable name="Y(16,24)" index="818" value="1"/>
  <variable name="Y(17,25)" index="872" value="1"/>
  <variable name="Y(18,26)" index="926" value="1"/>
  <variable name="Y(19,27)" index="980" value="1"/>
  <variable name="Y(20,28)" index="1034" value="1"/>
  <variable name="Y(21,1)" index="1060" value="1"/>
  <variable name="Y(24,5)" index="1223" value="1"/>
  <variable name="Y(28,11)" index="1441" value="1"/>
  <variable name="Y(33,18)" index="1713" value="1"/>
  <variable name="Y(354,12)" index="18720" value="1"/>
  <variable name="X(1,2,1)" index="24062" value="1"/>
  <variable name="X(1,7,2)" index="24517" value="1"/>
  <variable name="X(1,29,21)" index="24990" value="1"/>
  <variable name="X(2,1,21)" index="25444" value="1"/>
  <variable name="X(2,4,3)" index="25880" value="1"/>
  <variable name="X(2,7,25)" index="26356" value="1"/>
  <variable name="X(2,30,1)" index="26786" value="1"/>
  <variable name="X(3,4,45)" index="27284" value="1"/>
  <variable name="X(3,7,44)" index="27737" value="1"/>
  <variable name="X(3,16,5)" index="28152" value="1"/>
  <variable name="X(3,21,6)" index="28607" value="1"/>
  <variable name="X(3,31,2)" index="29057" value="1"/>
  <variable name="X(4,2,45)" index="29554" value="1"/>
  <variable name="X(4,3,22)" index="29985" value="1"/>
  <variable name="X(4,26,18)" index="30435" value="1"/>
  <variable name="X(4,32,3)" index="30874" value="1"/>
  <variable name="X(5,15,84)" index="31409" value="1"/>
  <variable name="X(5,33,24)" index="31803" value="1"/>
  <variable name="X(6,15,97)" index="32330" value="1"/>
  <variable name="X(7,1,44)" index="32731" value="1"/>
  <variable name="X(7,2,115)" index="33256" value="1"/>
  <variable name="X(7,3,2)" index="33597" value="1"/>
  <variable name="X(7,35,4)" index="34053" value="1"/>
  <variable name="X(8,17,141)" index="34644" value="1"/>
  <variable name="X(8,22,137)" index="35094" value="1"/>
  <variable name="X(8,36,5)" index="35416" value="1"/>
  <variable name="X(9,10,6)" index="35871" value="1"/>
  <variable name="X(9,24,156)" index="36475" value="1"/>
  <variable name="X(9,25,152)" index="36925" value="1"/>
  <variable name="X(10,9,169)" index="37396" value="1"/>
  <variable name="X(10,14,7)" index="37688" value="1"/>
  <variable name="X(10,38,6)" index="38141" value="1"/>
  <variable name="X(11,12,191)" index="38780" value="1"/>
  <variable name="X(11,18,33)" index="39076" value="1"/>
  <variable name="X(11,39,28)" index="39525" value="1"/>
  <variable name="X(12,11,28)" index="39979" value="1"/>
  <variable name="X(12,13,191)" index="40596" value="1"/>
  <variable name="X(12,40,354)" index="41213" value="1"/>
  <variable name="X(13,12,28)" index="41341" value="1"/>
  <variable name="X(13,14,191)" index="41958" value="1"/>
  <variable name="X(13,41,7)" index="42228" value="1"/>
  <variable name="X(14,10,191)" index="42866" value="1"/>
  <variable name="X(14,13,7)" index="43136" value="1"/>
  <variable name="X(15,5,24)" index="43607" value="1"/>
  <variable name="X(15,21,84)" index="44121" value="1"/>
  <variable name="X(15,25,6)" index="44497" value="1"/>
  <variable name="X(15,43,8)" index="44953" value="1"/>
  <variable name="X(16,3,137)" index="45536" value="1"/>
  <variable name="X(16,20,11)" index="45864" value="1"/>
  <variable name="X(16,21,308)" index="46615" value="1"/>
  <variable name="X(16,22,5)" index="46766" value="1"/>
  <variable name="X(16,44,9)" index="47224" value="1"/>
  <variable name="X(17,8,88)" index="47757" value="1"/>
  <variable name="X(17,23,147)" index="48270" value="1"/>
  <variable name="X(17,24,141)" index="48718" value="1"/>
  <variable name="X(17,45,10)" index="49041" value="1"/>
  <variable name="X(18,11,291)" index="49776" value="1"/>
  <variable name="X(18,46,33)" index="49972" value="1"/>
  <variable name="X(19,20,304)" index="50697" value="1"/>
  <variable name="X(19,28,190)" index="51037" value="1"/>
  <variable name="X(19,47,11)" index="51312" value="1"/>
  <variable name="X(20,16,304)" index="52059" value="1"/>
  <variable name="X(20,19,11)" index="52220" value="1"/>
  <variable name="X(20,48,12)" index="52675" value="1"/>
  <variable name="X(21,3,84)" index="53201" value="1"/>
  <variable name="X(21,15,6)" index="53577" value="1"/>
  <variable name="X(21,16,91)" index="54116" value="1"/>
  <variable name="X(21,23,10)" index="54489" value="1"/>
  <variable name="X(21,49,13)" index="54946" value="1"/>
  <variable name="X(22,8,5)" index="55392" value="1"/>
  <variable name="X(22,16,137)" index="55978" value="1"/>
  <variable name="X(22,50,14)" index="56309" value="1"/>
  <variable name="X(23,17,10)" index="56759" value="1"/>
  <variable name="X(23,21,147)" index="57350" value="1"/>
  <variable name="X(23,51,15)" index="57672" value="1"/>
  <variable name="X(24,9,141)" index="58252" value="1"/>
  <variable name="X(24,17,156)" index="58721" value="1"/>
  <variable name="X(24,25,142)" index="59161" value="1"/>
  <variable name="X(24,52,16)" index="59489" value="1"/>
  <variable name="X(25,9,6)" index="59933" value="1"/>
  <variable name="X(25,15,142)" index="60523" value="1"/>
  <variable name="X(25,23,88)" index="60923" value="1"/>
  <variable name="X(25,24,16)" index="61305" value="1"/>
  <variable name="X(25,53,17)" index="61760" value="1"/>
  <variable name="X(26,4,305)" index="62502" value="1"/>
  <variable name="X(26,27,19)" index="62670" value="1"/>
  <variable name="X(26,54,18)" index="63123" value="1"/>
  <variable name="X(27,26,305)" index="63864" value="1"/>
  <variable name="X(27,28,20)" index="64033" value="1"/>
  <variable name="X(27,55,19)" index="64486" value="1"/>
  <variable name="X(28,19,446)" index="65367" value="1"/>
  <variable name="X(28,27,305)" index="65680" value="1"/>
  <variable name="X(28,56,20)" index="65849" value="1"/>
 </variables>
</CPLEXSolution>
